instances/knapsack/discrete_knapsack_uncertainty/knapsack_90_9.lp
\ Model knapsack_90_9
\ LP format - for model browsing. Use MPS format to capture full model detail.
\ Signature: 0xc29ff4c0dcb79651
Minimize
  - 83 x[0] - 20 x[1] - 65 x[2] - 37 x[3] - 59 x[4] - 82 x[5] - 79 x[6]
   - 53 x[7] - 20 x[8] - 72 x[9] - 20 x[10] - 24 x[11] - 64 x[12]
   - 87 x[13] - 92 x[14] - 33 x[15] - 15 x[16] - 27 x[17] - 76 x[18]
   - 79 x[19] - 83 x[20] - 44 x[21] - 17 x[22] - 41 x[23] - 70 x[24]
   - 48 x[25] - 81 x[26] - 57 x[27] - 83 x[28] - 6 x[29] - 38 x[30]
   - 69 x[31] - 77 x[32] - 64 x[33] - 61 x[34] - 18 x[35] - 38 x[36]
   - 84 x[37] - 16 x[38] - 5 x[39] - 21 x[40] - 79 x[41] - 23 x[42]
   - 96 x[43] - 92 x[44] - 32 x[45] - 42 x[46] - 62 x[47] - 22 x[48]
   - 39 x[49] - 12 x[50] - 48 x[51] - 36 x[52] - 14 x[53] - 97 x[54]
   - 7 x[55] - 8 x[56] - 25 x[57] - 41 x[58] - 8 x[59] - 97 x[60]
   - 91 x[61] - 7 x[62] - 91 x[63] - 32 x[64] - 66 x[65] - 38 x[66]
   - 27 x[67] - 14 x[68] - 47 x[69] - 78 x[70] - 72 x[71] - 30 x[72]
   - 71 x[73] - 64 x[74] - 95 x[75] - 7 x[76] - 10 x[77] - 69 x[78]
   - 57 x[79] - 20 x[80] - 15 x[81] - 39 x[82] - 27 x[83] - 14 x[84]
   - 58 x[85] - 51 x[86] - 76 x[87] - 17 x[88] - 60 x[89]
Subject To
 primal_upper: 77 x[0] + 25 x[1] + 59 x[2] + 36 x[3] + 29 x[4] + 19 x[5]
   + 70 x[6] + 5 x[7] + 18 x[8] + 3 x[9] + 97 x[10] + 16 x[11] + 17 x[12]
   + 85 x[13] + 42 x[14] + 34 x[15] + 58 x[16] + 69 x[17] + 38 x[18]
   + 35 x[19] + 38 x[20] + 13 x[21] + 25 x[22] + 80 x[23] + 38 x[24]
   + 5 x[25] + 55 x[26] + 5 x[27] + 19 x[28] + 88 x[29] + 3 x[30]
   + 89 x[31] + 97 x[32] + 46 x[33] + x[34] + 2 x[35] + 77 x[36] + 2 x[37]
   + 5 x[38] + 24 x[39] + 68 x[40] + 23 x[41] + 3 x[42] + 15 x[43]
   + 24 x[44] + 28 x[45] + 59 x[46] + 63 x[47] + 24 x[48] + 65 x[49]
   + 24 x[50] + 49 x[51] + 98 x[52] + 41 x[53] + 18 x[54] + 57 x[55]
   + 30 x[56] + 48 x[57] + 45 x[58] + 27 x[59] + 6 x[60] + 52 x[61]
   + 65 x[62] + 28 x[63] + 77 x[64] + 49 x[65] + 38 x[66] + 12 x[67]
   + 17 x[68] + 39 x[69] + 11 x[70] + 67 x[71] + 55 x[72] + 52 x[73]
   + 41 x[74] + 94 x[75] + 4 x[76] + 16 x[77] + 74 x[78] + 56 x[79]
   + 67 x[80] + 43 x[81] + 72 x[82] + 7 x[83] + 71 x[84] + 67 x[85]
   + 65 x[86] + 85 x[87] + 79 x[88] + 8 x[89] + 7.7 r[0] + 2.5 r[1]
   + 5.9 r[2] + 3.6 r[3] + 2.9 r[4] + 1.9 r[5] + 7 r[6] + 0.5 r[7]
   + 1.8 r[8] + 0.3 r[9] + 9.7 r[10] + 1.6 r[11] + 1.7 r[12] + 8.5 r[13]
   + 4.2 r[14] + 3.4 r[15] + 5.8 r[16] + 6.9 r[17] + 3.8 r[18] + 3.5 r[19]
   + 3.8 r[20] + 1.3 r[21] + 2.5 r[22] + 8 r[23] + 3.8 r[24] + 0.5 r[25]
   + 5.5 r[26] + 0.5 r[27] + 1.9 r[28] + 8.8 r[29] + 0.3 r[30] + 8.9 r[31]
   + 9.7 r[32] + 4.6 r[33] + 0.1 r[34] + 0.2 r[35] + 7.7 r[36] + 0.2 r[37]
   + 0.5 r[38] + 2.4 r[39] + 6.8 r[40] + 2.3 r[41] + 0.3 r[42] + 1.5 r[43]
   + 2.4 r[44] + 2.8 r[45] + 5.9 r[46] + 6.3 r[47] + 2.4 r[48] + 6.5 r[49]
   + 2.4 r[50] + 4.9 r[51] + 9.8 r[52] + 4.1 r[53] + 1.8 r[54] + 5.7 r[55]
   + 3 r[56] + 4.8 r[57] + 4.5 r[58] + 2.7 r[59] + 0.6 r[60] + 5.2 r[61]
   + 6.5 r[62] + 2.8 r[63] + 7.7 r[64] + 4.9 r[65] + 3.8 r[66] + 1.2 r[67]
   + 1.7 r[68] + 3.9 r[69] + 1.1 r[70] + 6.7 r[71] + 5.5 r[72] + 5.2 r[73]
   + 4.1 r[74] + 9.4 r[75] + 0.4 r[76] + 1.6 r[77] + 7.4 r[78] + 5.6 r[79]
   + 6.7 r[80] + 4.3 r[81] + 7.2 r[82] + 0.7 r[83] + 7.1 r[84] + 6.7 r[85]
   + 6.5 r[86] + 8.5 r[87] + 7.9 r[88] + 0.8 r[89] <= 359
 primal_lower: 4.646889864091134 x[0] + 4.157940420397181 x[1]
   + 2.626492072088309 x[2] + 2.594231522416998 x[3]
   + 2.408898389246894 x[4] + 4.491989810383198 x[5]
   + 4.880090196494352 x[6] + 0.5826973179615718 x[7]
   + 3.734785614084917 x[8] + 2.648432855054706 x[9]
   + 0.5053643420593774 x[10] + 2.151437268028561 x[11]
   + 4.20067107465042 x[12] + 4.897993726863919 x[13]
   + 5.4389362367514 x[14] + 2.357812581349878 x[15]
   + 1.740930059851287 x[16] + 4.686823615904545 x[17]
   + 3.856809041986941 x[18] + 0.4220405943741896 x[19]
   + 4.43696641223341 x[20] + 2.567057484054311 x[21]
   + 3.416975295351251 x[22] + 1.154370442220136 x[23]
   + 3.252603839309824 x[24] + 4.703671843885714 x[25]
   + 5.375453946342575 x[26] + 1.058466135057184 x[27]
   + 1.218342606609218 x[28] + 3.324304385941712 x[29]
   + 1.359924213664842 x[30] + 5.214954505144155 x[31]
   + 2.7219685242833 x[32] + 4.151824553012606 x[33]
   + 5.178192239351309 x[34] + 2.666265106285338 x[35]
   + 5.100567275878909 x[36] + 4.164737737784499 x[37]
   + 2.31764643732398 x[38] + 5.344659451420806 x[39]
   + 0.8449983662200277 x[40] + 5.271190972770419 x[41]
   + 0.1723857570945722 x[42] + 4.548953080534613 x[43]
   + 4.815564568545615 x[44] + 3.072270436919462 x[45]
   + 4.175124552036604 x[46] + 0.1137266600658439 x[47]
   + 2.020747780761012 x[48] + 2.861916124284337 x[49]
   + 1.049186254731757 x[50] + 3.413732915414133 x[51]
   + 2.612124438639555 x[52] + 0.7551609741178283 x[53]
   + 2.408024119637087 x[54] + 0.8868094714756424 x[55]
   + 2.928747370359079 x[56] + 4.262155134615717 x[57]
   + 4.616161457848463 x[58] + 2.791076334030766 x[59]
   + 0.0811931344954357 x[60] + 2.220606522539481 x[61]
   + 5.361123774323176 x[62] + 3.282293969835146 x[63]
   + 1.083477330265707 x[64] + 0.6050286730638547 x[65]
   + 0.0831561919610212 x[66] + 1.446984812072426 x[67]
   + 3.491145164800365 x[68] + 5.124521850097856 x[69]
   + 1.820446715378256 x[70] + 0.7809133632545326 x[71]
   + 2.693858117595775 x[72] + 2.644985719221842 x[73]
   + 0.2823382408266335 x[74] + 0.7410752225526721 x[75]
   + 0.5849594931167604 x[76] + 1.042613038196076 x[77]
   + 5.055925481880907 x[78] + 0.8200310968902638 x[79]
   + 0.1031955387877889 x[80] + 5.260101963038161 x[81]
   + 2.550885588634711 x[82] + 2.602429108243137 x[83]
   + 5.287877379582811 x[84] + 0.9188912963072663 x[85]
   + 2.946445088177733 x[86] + 0.9598036232631555 x[87]
   + 2.648736635043728 x[88] + 3.224640980092041 x[89] + 92 u[0] + 33 u[1]
   + 67 u[2] + 68 u[3] + 5 u[4] + 54 u[5] + 94 u[6] + 80 u[7] + 62 u[8]
   + 95 u[9] + 88 u[10] + 60 u[11] + 73 u[12] + 89 u[13] + 21 u[14]
   + 9 u[15] + 22 u[16] + 61 u[17] + 34 u[18] + 59 u[19] + 70 u[20]
   + 16 u[21] + 73 u[22] + 99 u[23] + 21 u[24] + 9 u[25] + 11 u[26]
   + 52 u[27] + 90 u[28] + 12 u[29] + 78 u[30] + 44 u[31] + 96 u[32]
   + 94 u[33] + 29 u[34] + 30 u[35] + 89 u[36] + 53 u[37] + 85 u[38]
   + 99 u[39] + 68 u[40] + 42 u[41] + 59 u[42] + 70 u[43] + 40 u[44]
   + 15 u[45] + 50 u[46] + 22 u[47] + 80 u[48] + 25 u[49] + 55 u[50]
   + 33 u[51] + 18 u[52] + 37 u[53] + 41 u[54] + 24 u[55] + 54 u[56]
   + 51 u[57] + 97 u[58] + 71 u[59] + 97 u[60] + 11 u[61] + 16 u[62]
   + 95 u[63] + 40 u[64] + 97 u[65] + 17 u[66] + 59 u[67] + 37 u[68]
   + 22 u[69] + 94 u[70] + 74 u[71] + 95 u[72] + 32 u[73] + 76 u[74]
   + 13 u[75] + 71 u[76] + 92 u[77] + 89 u[78] + 87 u[79] + 62 u[80]
   + 98 u[81] + 11 u[82] + 82 u[83] + 46 u[84] + 94 u[85] + 80 u[86]
   + 29 u[87] + 79 u[88] + 84 u[89] <= 90207
 mccormick1[0]: - u[0] + r[0] <= 0
 mccormick1[1]: - u[1] + r[1] <= 0
 mccormick1[2]: - u[2] + r[2] <= 0
 mccormick1[3]: - u[3] + r[3] <= 0
 mccormick1[4]: - u[4] + r[4] <= 0
 mccormick1[5]: - u[5] + r[5] <= 0
 mccormick1[6]: - u[6] + r[6] <= 0
 mccormick1[7]: - u[7] + r[7] <= 0
 mccormick1[8]: - u[8] + r[8] <= 0
 mccormick1[9]: - u[9] + r[9] <= 0
 mccormick1[10]: - u[10] + r[10] <= 0
 mccormick1[11]: - u[11] + r[11] <= 0
 mccormick1[12]: - u[12] + r[12] <= 0
 mccormick1[13]: - u[13] + r[13] <= 0
 mccormick1[14]: - u[14] + r[14] <= 0
 mccormick1[15]: - u[15] + r[15] <= 0
 mccormick1[16]: - u[16] + r[16] <= 0
 mccormick1[17]: - u[17] + r[17] <= 0
 mccormick1[18]: - u[18] + r[18] <= 0
 mccormick1[19]: - u[19] + r[19] <= 0
 mccormick1[20]: - u[20] + r[20] <= 0
 mccormick1[21]: - u[21] + r[21] <= 0
 mccormick1[22]: - u[22] + r[22] <= 0
 mccormick1[23]: - u[23] + r[23] <= 0
 mccormick1[24]: - u[24] + r[24] <= 0
 mccormick1[25]: - u[25] + r[25] <= 0
 mccormick1[26]: - u[26] + r[26] <= 0
 mccormick1[27]: - u[27] + r[27] <= 0
 mccormick1[28]: - u[28] + r[28] <= 0
 mccormick1[29]: - u[29] + r[29] <= 0
 mccormick1[30]: - u[30] + r[30] <= 0
 mccormick1[31]: - u[31] + r[31] <= 0
 mccormick1[32]: - u[32] + r[32] <= 0
 mccormick1[33]: - u[33] + r[33] <= 0
 mccormick1[34]: - u[34] + r[34] <= 0
 mccormick1[35]: - u[35] + r[35] <= 0
 mccormick1[36]: - u[36] + r[36] <= 0
 mccormick1[37]: - u[37] + r[37] <= 0
 mccormick1[38]: - u[38] + r[38] <= 0
 mccormick1[39]: - u[39] + r[39] <= 0
 mccormick1[40]: - u[40] + r[40] <= 0
 mccormick1[41]: - u[41] + r[41] <= 0
 mccormick1[42]: - u[42] + r[42] <= 0
 mccormick1[43]: - u[43] + r[43] <= 0
 mccormick1[44]: - u[44] + r[44] <= 0
 mccormick1[45]: - u[45] + r[45] <= 0
 mccormick1[46]: - u[46] + r[46] <= 0
 mccormick1[47]: - u[47] + r[47] <= 0
 mccormick1[48]: - u[48] + r[48] <= 0
 mccormick1[49]: - u[49] + r[49] <= 0
 mccormick1[50]: - u[50] + r[50] <= 0
 mccormick1[51]: - u[51] + r[51] <= 0
 mccormick1[52]: - u[52] + r[52] <= 0
 mccormick1[53]: - u[53] + r[53] <= 0
 mccormick1[54]: - u[54] + r[54] <= 0
 mccormick1[55]: - u[55] + r[55] <= 0
 mccormick1[56]: - u[56] + r[56] <= 0
 mccormick1[57]: - u[57] + r[57] <= 0
 mccormick1[58]: - u[58] + r[58] <= 0
 mccormick1[59]: - u[59] + r[59] <= 0
 mccormick1[60]: - u[60] + r[60] <= 0
 mccormick1[61]: - u[61] + r[61] <= 0
 mccormick1[62]: - u[62] + r[62] <= 0
 mccormick1[63]: - u[63] + r[63] <= 0
 mccormick1[64]: - u[64] + r[64] <= 0
 mccormick1[65]: - u[65] + r[65] <= 0
 mccormick1[66]: - u[66] + r[66] <= 0
 mccormick1[67]: - u[67] + r[67] <= 0
 mccormick1[68]: - u[68] + r[68] <= 0
 mccormick1[69]: - u[69] + r[69] <= 0
 mccormick1[70]: - u[70] + r[70] <= 0
 mccormick1[71]: - u[71] + r[71] <= 0
 mccormick1[72]: - u[72] + r[72] <= 0
 mccormick1[73]: - u[73] + r[73] <= 0
 mccormick1[74]: - u[74] + r[74] <= 0
 mccormick1[75]: - u[75] + r[75] <= 0
 mccormick1[76]: - u[76] + r[76] <= 0
 mccormick1[77]: - u[77] + r[77] <= 0
 mccormick1[78]: - u[78] + r[78] <= 0
 mccormick1[79]: - u[79] + r[79] <= 0
 mccormick1[80]: - u[80] + r[80] <= 0
 mccormick1[81]: - u[81] + r[81] <= 0
 mccormick1[82]: - u[82] + r[82] <= 0
 mccormick1[83]: - u[83] + r[83] <= 0
 mccormick1[84]: - u[84] + r[84] <= 0
 mccormick1[85]: - u[85] + r[85] <= 0
 mccormick1[86]: - u[86] + r[86] <= 0
 mccormick1[87]: - u[87] + r[87] <= 0
 mccormick1[88]: - u[88] + r[88] <= 0
 mccormick1[89]: - u[89] + r[89] <= 0
 mccormick2[0]: - x[0] + r[0] <= 0
 mccormick2[1]: - x[1] + r[1] <= 0
 mccormick2[2]: - x[2] + r[2] <= 0
 mccormick2[3]: - x[3] + r[3] <= 0
 mccormick2[4]: - x[4] + r[4] <= 0
 mccormick2[5]: - x[5] + r[5] <= 0
 mccormick2[6]: - x[6] + r[6] <= 0
 mccormick2[7]: - x[7] + r[7] <= 0
 mccormick2[8]: - x[8] + r[8] <= 0
 mccormick2[9]: - x[9] + r[9] <= 0
 mccormick2[10]: - x[10] + r[10] <= 0
 mccormick2[11]: - x[11] + r[11] <= 0
 mccormick2[12]: - x[12] + r[12] <= 0
 mccormick2[13]: - x[13] + r[13] <= 0
 mccormick2[14]: - x[14] + r[14] <= 0
 mccormick2[15]: - x[15] + r[15] <= 0
 mccormick2[16]: - x[16] + r[16] <= 0
 mccormick2[17]: - x[17] + r[17] <= 0
 mccormick2[18]: - x[18] + r[18] <= 0
 mccormick2[19]: - x[19] + r[19] <= 0
 mccormick2[20]: - x[20] + r[20] <= 0
 mccormick2[21]: - x[21] + r[21] <= 0
 mccormick2[22]: - x[22] + r[22] <= 0
 mccormick2[23]: - x[23] + r[23] <= 0
 mccormick2[24]: - x[24] + r[24] <= 0
 mccormick2[25]: - x[25] + r[25] <= 0
 mccormick2[26]: - x[26] + r[26] <= 0
 mccormick2[27]: - x[27] + r[27] <= 0
 mccormick2[28]: - x[28] + r[28] <= 0
 mccormick2[29]: - x[29] + r[29] <= 0
 mccormick2[30]: - x[30] + r[30] <= 0
 mccormick2[31]: - x[31] + r[31] <= 0
 mccormick2[32]: - x[32] + r[32] <= 0
 mccormick2[33]: - x[33] + r[33] <= 0
 mccormick2[34]: - x[34] + r[34] <= 0
 mccormick2[35]: - x[35] + r[35] <= 0
 mccormick2[36]: - x[36] + r[36] <= 0
 mccormick2[37]: - x[37] + r[37] <= 0
 mccormick2[38]: - x[38] + r[38] <= 0
 mccormick2[39]: - x[39] + r[39] <= 0
 mccormick2[40]: - x[40] + r[40] <= 0
 mccormick2[41]: - x[41] + r[41] <= 0
 mccormick2[42]: - x[42] + r[42] <= 0
 mccormick2[43]: - x[43] + r[43] <= 0
 mccormick2[44]: - x[44] + r[44] <= 0
 mccormick2[45]: - x[45] + r[45] <= 0
 mccormick2[46]: - x[46] + r[46] <= 0
 mccormick2[47]: - x[47] + r[47] <= 0
 mccormick2[48]: - x[48] + r[48] <= 0
 mccormick2[49]: - x[49] + r[49] <= 0
 mccormick2[50]: - x[50] + r[50] <= 0
 mccormick2[51]: - x[51] + r[51] <= 0
 mccormick2[52]: - x[52] + r[52] <= 0
 mccormick2[53]: - x[53] + r[53] <= 0
 mccormick2[54]: - x[54] + r[54] <= 0
 mccormick2[55]: - x[55] + r[55] <= 0
 mccormick2[56]: - x[56] + r[56] <= 0
 mccormick2[57]: - x[57] + r[57] <= 0
 mccormick2[58]: - x[58] + r[58] <= 0
 mccormick2[59]: - x[59] + r[59] <= 0
 mccormick2[60]: - x[60] + r[60] <= 0
 mccormick2[61]: - x[61] + r[61] <= 0
 mccormick2[62]: - x[62] + r[62] <= 0
 mccormick2[63]: - x[63] + r[63] <= 0
 mccormick2[64]: - x[64] + r[64] <= 0
 mccormick2[65]: - x[65] + r[65] <= 0
 mccormick2[66]: - x[66] + r[66] <= 0
 mccormick2[67]: - x[67] + r[67] <= 0
 mccormick2[68]: - x[68] + r[68] <= 0
 mccormick2[69]: - x[69] + r[69] <= 0
 mccormick2[70]: - x[70] + r[70] <= 0
 mccormick2[71]: - x[71] + r[71] <= 0
 mccormick2[72]: - x[72] + r[72] <= 0
 mccormick2[73]: - x[73] + r[73] <= 0
 mccormick2[74]: - x[74] + r[74] <= 0
 mccormick2[75]: - x[75] + r[75] <= 0
 mccormick2[76]: - x[76] + r[76] <= 0
 mccormick2[77]: - x[77] + r[77] <= 0
 mccormick2[78]: - x[78] + r[78] <= 0
 mccormick2[79]: - x[79] + r[79] <= 0
 mccormick2[80]: - x[80] + r[80] <= 0
 mccormick2[81]: - x[81] + r[81] <= 0
 mccormick2[82]: - x[82] + r[82] <= 0
 mccormick2[83]: - x[83] + r[83] <= 0
 mccormick2[84]: - x[84] + r[84] <= 0
 mccormick2[85]: - x[85] + r[85] <= 0
 mccormick2[86]: - x[86] + r[86] <= 0
 mccormick2[87]: - x[87] + r[87] <= 0
 mccormick2[88]: - x[88] + r[88] <= 0
 mccormick2[89]: - x[89] + r[89] <= 0
 mccormick3[0]: x[0] + u[0] - r[0] <= 1
 mccormick3[1]: x[1] + u[1] - r[1] <= 1
 mccormick3[2]: x[2] + u[2] - r[2] <= 1
 mccormick3[3]: x[3] + u[3] - r[3] <= 1
 mccormick3[4]: x[4] + u[4] - r[4] <= 1
 mccormick3[5]: x[5] + u[5] - r[5] <= 1
 mccormick3[6]: x[6] + u[6] - r[6] <= 1
 mccormick3[7]: x[7] + u[7] - r[7] <= 1
 mccormick3[8]: x[8] + u[8] - r[8] <= 1
 mccormick3[9]: x[9] + u[9] - r[9] <= 1
 mccormick3[10]: x[10] + u[10] - r[10] <= 1
 mccormick3[11]: x[11] + u[11] - r[11] <= 1
 mccormick3[12]: x[12] + u[12] - r[12] <= 1
 mccormick3[13]: x[13] + u[13] - r[13] <= 1
 mccormick3[14]: x[14] + u[14] - r[14] <= 1
 mccormick3[15]: x[15] + u[15] - r[15] <= 1
 mccormick3[16]: x[16] + u[16] - r[16] <= 1
 mccormick3[17]: x[17] + u[17] - r[17] <= 1
 mccormick3[18]: x[18] + u[18] - r[18] <= 1
 mccormick3[19]: x[19] + u[19] - r[19] <= 1
 mccormick3[20]: x[20] + u[20] - r[20] <= 1
 mccormick3[21]: x[21] + u[21] - r[21] <= 1
 mccormick3[22]: x[22] + u[22] - r[22] <= 1
 mccormick3[23]: x[23] + u[23] - r[23] <= 1
 mccormick3[24]: x[24] + u[24] - r[24] <= 1
 mccormick3[25]: x[25] + u[25] - r[25] <= 1
 mccormick3[26]: x[26] + u[26] - r[26] <= 1
 mccormick3[27]: x[27] + u[27] - r[27] <= 1
 mccormick3[28]: x[28] + u[28] - r[28] <= 1
 mccormick3[29]: x[29] + u[29] - r[29] <= 1
 mccormick3[30]: x[30] + u[30] - r[30] <= 1
 mccormick3[31]: x[31] + u[31] - r[31] <= 1
 mccormick3[32]: x[32] + u[32] - r[32] <= 1
 mccormick3[33]: x[33] + u[33] - r[33] <= 1
 mccormick3[34]: x[34] + u[34] - r[34] <= 1
 mccormick3[35]: x[35] + u[35] - r[35] <= 1
 mccormick3[36]: x[36] + u[36] - r[36] <= 1
 mccormick3[37]: x[37] + u[37] - r[37] <= 1
 mccormick3[38]: x[38] + u[38] - r[38] <= 1
 mccormick3[39]: x[39] + u[39] - r[39] <= 1
 mccormick3[40]: x[40] + u[40] - r[40] <= 1
 mccormick3[41]: x[41] + u[41] - r[41] <= 1
 mccormick3[42]: x[42] + u[42] - r[42] <= 1
 mccormick3[43]: x[43] + u[43] - r[43] <= 1
 mccormick3[44]: x[44] + u[44] - r[44] <= 1
 mccormick3[45]: x[45] + u[45] - r[45] <= 1
 mccormick3[46]: x[46] + u[46] - r[46] <= 1
 mccormick3[47]: x[47] + u[47] - r[47] <= 1
 mccormick3[48]: x[48] + u[48] - r[48] <= 1
 mccormick3[49]: x[49] + u[49] - r[49] <= 1
 mccormick3[50]: x[50] + u[50] - r[50] <= 1
 mccormick3[51]: x[51] + u[51] - r[51] <= 1
 mccormick3[52]: x[52] + u[52] - r[52] <= 1
 mccormick3[53]: x[53] + u[53] - r[53] <= 1
 mccormick3[54]: x[54] + u[54] - r[54] <= 1
 mccormick3[55]: x[55] + u[55] - r[55] <= 1
 mccormick3[56]: x[56] + u[56] - r[56] <= 1
 mccormick3[57]: x[57] + u[57] - r[57] <= 1
 mccormick3[58]: x[58] + u[58] - r[58] <= 1
 mccormick3[59]: x[59] + u[59] - r[59] <= 1
 mccormick3[60]: x[60] + u[60] - r[60] <= 1
 mccormick3[61]: x[61] + u[61] - r[61] <= 1
 mccormick3[62]: x[62] + u[62] - r[62] <= 1
 mccormick3[63]: x[63] + u[63] - r[63] <= 1
 mccormick3[64]: x[64] + u[64] - r[64] <= 1
 mccormick3[65]: x[65] + u[65] - r[65] <= 1
 mccormick3[66]: x[66] + u[66] - r[66] <= 1
 mccormick3[67]: x[67] + u[67] - r[67] <= 1
 mccormick3[68]: x[68] + u[68] - r[68] <= 1
 mccormick3[69]: x[69] + u[69] - r[69] <= 1
 mccormick3[70]: x[70] + u[70] - r[70] <= 1
 mccormick3[71]: x[71] + u[71] - r[71] <= 1
 mccormick3[72]: x[72] + u[72] - r[72] <= 1
 mccormick3[73]: x[73] + u[73] - r[73] <= 1
 mccormick3[74]: x[74] + u[74] - r[74] <= 1
 mccormick3[75]: x[75] + u[75] - r[75] <= 1
 mccormick3[76]: x[76] + u[76] - r[76] <= 1
 mccormick3[77]: x[77] + u[77] - r[77] <= 1
 mccormick3[78]: x[78] + u[78] - r[78] <= 1
 mccormick3[79]: x[79] + u[79] - r[79] <= 1
 mccormick3[80]: x[80] + u[80] - r[80] <= 1
 mccormick3[81]: x[81] + u[81] - r[81] <= 1
 mccormick3[82]: x[82] + u[82] - r[82] <= 1
 mccormick3[83]: x[83] + u[83] - r[83] <= 1
 mccormick3[84]: x[84] + u[84] - r[84] <= 1
 mccormick3[85]: x[85] + u[85] - r[85] <= 1
 mccormick3[86]: x[86] + u[86] - r[86] <= 1
 mccormick3[87]: x[87] + u[87] - r[87] <= 1
 mccormick3[88]: x[88] + u[88] - r[88] <= 1
 mccormick3[89]: x[89] + u[89] - r[89] <= 1
Bounds
Binaries
 x[0] x[1] x[2] x[3] x[4] x[5] x[6] x[7] x[8] x[9] x[10] x[11] x[12] x[13]
 x[14] x[15] x[16] x[17] x[18] x[19] x[20] x[21] x[22] x[23] x[24] x[25]
 x[26] x[27] x[28] x[29] x[30] x[31] x[32] x[33] x[34] x[35] x[36] x[37]
 x[38] x[39] x[40] x[41] x[42] x[43] x[44] x[45] x[46] x[47] x[48] x[49]
 x[50] x[51] x[52] x[53] x[54] x[55] x[56] x[57] x[58] x[59] x[60] x[61]
 x[62] x[63] x[64] x[65] x[66] x[67] x[68] x[69] x[70] x[71] x[72] x[73]
 x[74] x[75] x[76] x[77] x[78] x[79] x[80] x[81] x[82] x[83] x[84] x[85]
 x[86] x[87] x[88] x[89] u[0] u[1] u[2] u[3] u[4] u[5] u[6] u[7] u[8] u[9]
 u[10] u[11] u[12] u[13] u[14] u[15] u[16] u[17] u[18] u[19] u[20] u[21]
 u[22] u[23] u[24] u[25] u[26] u[27] u[28] u[29] u[30] u[31] u[32] u[33]
 u[34] u[35] u[36] u[37] u[38] u[39] u[40] u[41] u[42] u[43] u[44] u[45]
 u[46] u[47] u[48] u[49] u[50] u[51] u[52] u[53] u[54] u[55] u[56] u[57]
 u[58] u[59] u[60] u[61] u[62] u[63] u[64] u[65] u[66] u[67] u[68] u[69]
 u[70] u[71] u[72] u[73] u[74] u[75] u[76] u[77] u[78] u[79] u[80] u[81]
 u[82] u[83] u[84] u[85] u[86] u[87] u[88] u[89] r[0] r[1] r[2] r[3] r[4]
 r[5] r[6] r[7] r[8] r[9] r[10] r[11] r[12] r[13] r[14] r[15] r[16] r[17]
 r[18] r[19] r[20] r[21] r[22] r[23] r[24] r[25] r[26] r[27] r[28] r[29]
 r[30] r[31] r[32] r[33] r[34] r[35] r[36] r[37] r[38] r[39] r[40] r[41]
 r[42] r[43] r[44] r[45] r[46] r[47] r[48] r[49] r[50] r[51] r[52] r[53]
 r[54] r[55] r[56] r[57] r[58] r[59] r[60] r[61] r[62] r[63] r[64] r[65]
 r[66] r[67] r[68] r[69] r[70] r[71] r[72] r[73] r[74] r[75] r[76] r[77]
 r[78] r[79] r[80] r[81] r[82] r[83] r[84] r[85] r[86] r[87] r[88] r[89]
End
