instances/knapsack/discrete_knapsack_uncertainty/knapsack_90_9.kp
53244
90
359

77 7.7 83
25 2.5 20
59 5.9 65
36 3.6 37
29 2.9 59
19 1.9 82
70 7.0 79
5 0.5 53
18 1.8 20
3 0.3 72
97 9.7 20
16 1.6 24
17 1.7 64
85 8.5 87
42 4.2 92
34 3.4 33
58 5.8 15
69 6.9 27
38 3.8 76
35 3.5 79
38 3.8 83
13 1.3 44
25 2.5 17
80 8.0 41
38 3.8 70
5 0.5 48
55 5.5 81
5 0.5 57
19 1.9 83
88 8.8 6
3 0.3 38
89 8.9 69
97 9.7 77
46 4.6 64
1 0.1 61
2 0.2 18
77 7.7 38
2 0.2 84
5 0.5 16
24 2.4 5
68 6.8 21
23 2.3 79
3 0.3 23
15 1.5 96
24 2.4 92
28 2.8 32
59 5.9 42
63 6.3 62
24 2.4 22
65 6.5 39
24 2.4 12
49 4.9 48
98 9.8 36
41 4.1 14
18 1.8 97
57 5.7 7
30 3.0 8
48 4.8 25
45 4.5 41
27 2.7 8
6 0.6 97
52 5.2 91
65 6.5 7
28 2.8 91
77 7.7 32
49 4.9 66
38 3.8 38
12 1.2 27
17 1.7 14
39 3.9 47
11 1.1 78
67 6.7 72
55 5.5 30
52 5.2 71
41 4.1 64
94 9.4 95
4 0.4 7
16 1.6 10
74 7.4 69
56 5.6 57
67 6.7 20
43 4.3 15
72 7.2 39
7 0.7 27
71 7.1 14
67 6.7 58
65 6.5 51
85 8.5 76
79 7.9 17
8 0.8 60

90207
490

[4.646889864091134 4.157940420397181 2.626492072088309 2.5942315224169983 2.4088983892468945 4.491989810383198 4.880090196494352 0.5826973179615718 3.7347856140849167 2.648432855054706 0.5053643420593774 2.151437268028561 4.20067107465042 4.897993726863919 5.4389362367514 2.3578125813498785 1.7409300598512873 4.686823615904545 3.8568090419869407 0.42204059437418956 4.43696641223341 2.567057484054311 3.4169752953512513 1.1543704422201357 3.252603839309824 4.703671843885714 5.375453946342575 1.0584661350571845 1.218342606609218 3.3243043859417116 1.3599242136648417 5.2149545051441555 2.7219685242833 4.151824553012606 5.178192239351309 2.666265106285338 5.100567275878909 4.164737737784499 2.31764643732398 5.344659451420806 0.8449983662200277 5.271190972770419 0.17238575709457224 4.548953080534613 4.815564568545615 3.0722704369194616 4.175124552036604 0.11372666006584388 2.0207477807610124 2.8619161242843374 1.0491862547317565 3.413732915414133 2.6121244386395555 0.7551609741178283 2.408024119637087 0.8868094714756424 2.9287473703590794 4.262155134615717 4.616161457848463 2.791076334030766 0.08119313449543572 2.220606522539481 5.361123774323176 3.282293969835146 1.0834773302657075 0.6050286730638547 0.08315619196102117 1.4469848120724262 3.491145164800365 5.124521850097856 1.820446715378256 0.7809133632545326 2.693858117595775 2.6449857192218422 0.2823382408266335 0.7410752225526721 0.5849594931167604 1.0426130381960763 5.055925481880907 0.8200310968902638 0.10319553878778889 5.260101963038161 2.550885588634711 2.602429108243137 5.287877379582811 0.9188912963072663 2.946445088177733 0.9598036232631555 2.6487366350437282 3.2246409800920413]

[92 33 67 68 5 54 94 80 62 95 88 60 73 89 21 9 22 61 34 59 70 16 73 99 21 9 11 52 90 12 78 44 96 94 29 30 89 53 85 99 68 42 59 70 40 15 50 22 80 25 55 33 18 37 41 24 54 51 97 71 97 11 16 95 40 97 17 59 37 22 94 74 95 32 76 13 71 92 89 87 62 98 11 82 46 94 80 29 79 84]
